(set-logic BV) (define-fun origCir ((n125 Bool) (n108 Bool) (n133 Bool) (n135 Bool) (n129 Bool) (n47 Bool)) Bool (not (and (and (not (and (and n135 n133) n129)) (xor n108 n125)) n47))) (synth-fun skel ((n125 Bool) (n108 Bool) (n133 Bool) (n135 Bool) (n129 Bool) (n47 Bool)) Bool) (declare-var n125 Bool) (declare-var n108 Bool) (declare-var n133 Bool) (declare-var n135 Bool) (declare-var n129 Bool) (declare-var n47 Bool) (constraint (= (origCir n125 n108 n133 n135 n129 n47) (skel n125 n108 n133 n135 n129 n47))) (check-synth)
